143
0 102 14 63 97 81 28 142 5 99 
112 90 20 68 10 7 56 130 93 104 
135 116 40 83 9 48 11 17 103 66 
3 35 87 126 51 6 105 136 33 113 
4 31 53 58 108 57 133 82 70 86 
37 25 8 89 1 69 132 39 71 41 
122 125 45 36 121 124 138 128 139 129 
26 88 114 119 43 79 24 19 46 32 
84 120 29 54 38 12 95 76 16 127 
23 64 50 21 61 27 80 77 13 140 
107 73 123 118 117 47 109 2 34 137 
55 60 134 91 141 115 15 49 72 52 
65 106 101 22 110 67 42 100 78 96 
18 94 74 85 30 75 62 44 111 131 
59 98 92 
